files/upTests/__essence_catalog/prob005-n/0001.eprime
language ESSENCE' 1.0

find s_AsReln_RelationIntMatrix2:
        matrix indexed by [int(1..3), int(-1, 1)] of bool
minimising sum v__0 : int(1..2)
               . (sum v__1 : int(0..3 - v__0 - 1)
                      . (sum v__2 : int(1..3)
                             . (sum v__3 : int(-1, 1)
                                    . (v__2 = v__1 /\ s_AsReln_RelationIntMatrix2[v__2, v__3]) * v__3))
                        *
                        (sum v__2 : int(1..3)
                             . (sum v__3 : int(-1, 1)
                                    . (v__2 = v__1 + v__0 /\ s_AsReln_RelationIntMatrix2[v__2, v__3]) * v__3)))
                 **
                 2
such that
    forAll v__0 : int(1..3)
        . (sum v__1 : int(1..3)
               . (sum v__2 : int(-1, 1)
                      . s_AsReln_RelationIntMatrix2[v__1, v__2] * (v__0 = v__1)))
          =
          1
