files/upTests/__essence_catalog/prob005-n/0001.eprime.solution
language ESSENCE' 1.0
$ minion Nodes: 8881
$ minion TotalTime: 0.027785
$ Savile Row TotalTime: 0.993
letting s_AsReln_RelationAsSet_ExplicitVarSize_tuple1 be [0, 0, 0, 1, 1, 1]
letting s_AsReln_RelationAsSet_ExplicitVarSize_tuple2_tuple2 be [-1, -1, -1, -1, -1, -1]
letting s_AsReln_RelationAsSet_ExplicitVarSize_tuple2_tuple1 be [1, 1, 1, 1, 2, 3]
